Grasp exp. instance_n_15_m_5_id_2.lp tipoLifted 0 szPool 1 nIteration 20 alpha 1 
Academic license - for non-commercial use only
Read LP format model from file ../input/instancesGenerated/instance_n_15_m_5_id_2.lp
Reading time = 0.00 seconds
: 5 rows, 15 columns, 75 nonzeros
Optimize a model with 5 rows, 15 columns and 75 nonzeros
Variable types: 0 continuous, 15 integer (15 binary)
Coefficient statistics:
  Matrix range     [1e+00, 1e+01]
  Objective range  [1e+00, 1e+01]
  Bounds range     [1e+00, 1e+00]
  RHS range        [4e+01, 5e+01]
Found heuristic solution: objective 36.0000000

Explored 0 nodes (0 simplex iterations) in 0.00 seconds
Thread count was 1 (of 8 available processors)

Solution count 1: 36 
No other solutions better than 0

Solution limit reached
Best objective 3.600000000000e+01, best bound -, gap -
C_1:	 6.00 x_1  = 1.000000 + 6.00 x_2  = 0.000000 + 1.00 x_3  = 0.000000 + 4.00 x_4  = 1.000000 + 5.00 x_5  = 0.101545 + 9.00 x_6  = 0.253863 + 9.00 x_7  = 0.112583 + 2.00 x_8  = 1.000000 + 4.00 x_9  = 0.000000 + 1.00 x_10  = 1.000000 + 6.00 x_11  = 1.000000 + 2.00 x_12  = 0.000000 + 7.00 x_13  = 1.000000 + 8.00 x_14  = 0.024283 + 9.00 x_15  = 1.000000 <= 39.00
C_2:	 4.00 x_1  = 1.000000 + 9.00 x_2  = 0.000000 + 2.00 x_3  = 0.000000 + 7.00 x_4  = 1.000000 + 8.00 x_5  = 0.101545 + 7.00 x_6  = 0.253863 + 3.00 x_7  = 0.112583 + 7.00 x_8  = 1.000000 + 7.00 x_9  = 0.000000 + 10.00 x_10  = 1.000000 + 6.00 x_11  = 1.000000 + 5.00 x_12  = 0.000000 + 2.00 x_13  = 1.000000 + 3.00 x_14  = 0.024283 + 1.00 x_15  = 1.000000 <= 40.00
C_3:	 8.00 x_1  = 1.000000 + 9.00 x_2  = 0.000000 + 8.00 x_3  = 0.000000 + 1.00 x_4  = 1.000000 + 4.00 x_5  = 0.101545 + 2.00 x_6  = 0.253863 + 9.00 x_7  = 0.112583 + 5.00 x_8  = 1.000000 + 5.00 x_9  = 0.000000 + 4.00 x_10  = 1.000000 + 5.00 x_11  = 1.000000 + 3.00 x_12  = 0.000000 + 5.00 x_13  = 1.000000 + 3.00 x_14  = 0.024283 + 10.00 x_15  = 1.000000 <= 40.00
C_4:	 6.00 x_1  = 1.000000 + 7.00 x_2  = 0.000000 + 8.00 x_3  = 0.000000 + 7.00 x_4  = 1.000000 + 3.00 x_5  = 0.101545 + 7.00 x_6  = 0.253863 + 6.00 x_7  = 0.112583 + 7.00 x_8  = 1.000000 + 5.00 x_9  = 0.000000 + 2.00 x_10  = 1.000000 + 9.00 x_11  = 1.000000 + 1.00 x_12  = 0.000000 + 7.00 x_13  = 1.000000 + 10.00 x_14  = 0.024283 + 3.00 x_15  = 1.000000 <= 44.00
C_5:	 9.00 x_1  = 1.000000 + 9.00 x_2  = 0.000000 + 3.00 x_3  = 0.000000 + 7.00 x_4  = 1.000000 + 9.00 x_5  = 0.101545 + 9.00 x_6  = 0.253863 + 10.00 x_7  = 0.112583 + 10.00 x_8  = 1.000000 + 3.00 x_9  = 0.000000 + 7.00 x_10  = 1.000000 + 3.00 x_11  = 1.000000 + 9.00 x_12  = 0.000000 + 9.00 x_13  = 1.000000 + 10.00 x_14  = 0.024283 + 1.00 x_15  = 1.000000 <= 54.00
Solution initial: 64.344371 
Number Constraints Used in Cover:5
GRASP Method!
Number cuts repeat: 0
value: 64.344371
Number Constraints Used in Cover:7
GRASP Method!
Number cuts repeat: 0
value: 64.344371
Number Constraints Used in Cover:9
GRASP Method!
Number cuts repeat: 0
value: 64.344371
Number Constraints Used in Cover:11
GRASP Method!
Number cuts repeat: 0
value: 64.344371
Number Constraints Used in Cover:13
GRASP Method!
Number cuts repeat: 0
value: 64.344371
Number Constraints Used in Cover:15
GRASP Method!
Number cuts repeat: 0
value: 64.344371
Number Constraints Used in Cover:17
GRASP Method!
Number cuts repeat: 0
value: 64.344371
Number Constraints Used in Cover:19
GRASP Method!
Number cuts repeat: 0
value: 64.344371
Number Constraints Used in Cover:21
GRASP Method!
Number cuts repeat: 0
value: 64.344371
Number Constraints Used in Cover:23
GRASP Method!
Number cuts repeat: 0
value: 64.344371
Number Constraints Used in Cover:25
GRASP Method!
Number cuts repeat: 0
value: 64.344371
Number Constraints Used in Cover:27
GRASP Method!
Number cuts repeat: 0
value: 64.344371
Number Constraints Used in Cover:29
GRASP Method!
Number cuts repeat: 0
value: 64.344371
Number Constraints Used in Cover:31
GRASP Method!
Number cuts repeat: 0
value: 64.344371
Number Constraints Used in Cover:33
GRASP Method!
Number cuts repeat: 0
value: 64.344371
Number Constraints Used in Cover:36
GRASP Method!
Number cuts repeat: 0
value: 64.344371
Number Constraints Used in Cover:38
GRASP Method!
Number cuts repeat: 0
value: 64.344371
Number Constraints Used in Cover:40
GRASP Method!
Number cuts repeat: 0
value: 64.344371
Number Constraints Used in Cover:42
GRASP Method!
Number cuts repeat: 0
value: 64.344371
Number Constraints Used in Cover:45
GRASP Method!
Number cuts repeat: 0
value: 64.344371
Number Constraints Used in Cover:48
GRASP Method!
Number cuts repeat: 0
value: 64.344371
Number Constraints Used in Cover:51
GRASP Method!
Number cuts repeat: 0
value: 64.344371
Number Constraints Used in Cover:54
GRASP Method!
Number cuts repeat: 0
value: 64.344371
Number Constraints Used in Cover:56
GRASP Method!
Number cuts repeat: 0
value: 64.344371
Number Constraints Used in Cover:59
GRASP Method!
Number cuts repeat: 0
value: 64.344371
Number Constraints Used in Cover:62
GRASP Method!
Number cuts repeat: 0
value: 64.344371
Number Constraints Used in Cover:65
GRASP Method!
Number cuts repeat: 0
value: 64.344371
Number Constraints Used in Cover:67
GRASP Method!
Number cuts repeat: 0
value: 64.344371
Number Constraints Used in Cover:69
GRASP Method!
Number cuts repeat: 0
value: 64.344371
Number Constraints Used in Cover:71
GRASP Method!
Number cuts repeat: 0
value: 64.344371
Number Constraints Used in Cover:73
GRASP Method!
Number cuts repeat: 0
value: 64.292978
Number Constraints Used in Cover:75
GRASP Method!
Number cuts repeat: 0
value: 64.292978
Number Constraints Used in Cover:77
GRASP Method!
Number cuts repeat: 0
value: 64.292978
Number Constraints Used in Cover:79
GRASP Method!
Number cuts repeat: 0
value: 64.292978
Number Constraints Used in Cover:81
GRASP Method!
Number cuts repeat: 0
value: 64.292978
Number Constraints Used in Cover:84
GRASP Method!
Number cuts repeat: 0
value: 64.292978
Number Constraints Used in Cover:87
GRASP Method!
Number cuts repeat: 0
value: 64.292978
Number Constraints Used in Cover:88
GRASP Method!
Number cuts repeat: 0
value: 64.292978
Number Constraints Used in Cover:91
GRASP Method!
Number cuts repeat: 0
value: 64.292978
Number Constraints Used in Cover:94
GRASP Method!
Number cuts repeat: 0
value: 64.292978
Number Constraints Used in Cover:97
GRASP Method!
Number cuts repeat: 0
value: 64.292978
Number Constraints Used in Cover:100
GRASP Method!
Number cuts repeat: 0
value: 64.292978
Number Constraints Used in Cover:103
GRASP Method!
Number cuts repeat: 0
value: 64.292978
Number Constraints Used in Cover:105
GRASP Method!
Number cuts repeat: 0
value: 64.292978
Number Constraints Used in Cover:108
GRASP Method!
Number cuts repeat: 0
value: 64.292978
Number Constraints Used in Cover:111
GRASP Method!
Number cuts repeat: 0
value: 64.292978
Number Constraints Used in Cover:113
GRASP Method!
Number cuts repeat: 0
value: 64.292978
Number Constraints Used in Cover:115
GRASP Method!
Number cuts repeat: 0
value: 64.292978
Number Constraints Used in Cover:118
GRASP Method!
Number cuts repeat: 0
value: 64.292978
Number Constraints Used in Cover:120
GRASP Method!
Number cuts repeat: 0
value: 64.292978
Number Constraints Used in Cover:122
GRASP Method!
Number cuts repeat: 0
value: 64.292978
Number Constraints Used in Cover:123
GRASP Method!
Number cuts repeat: 0
value: 64.292978
Number Constraints Used in Cover:126
GRASP Method!
Number cuts repeat: 0
value: 64.292978
Number Constraints Used in Cover:128
GRASP Method!
Number cuts repeat: 0
value: 64.292978
Number Constraints Used in Cover:130
GRASP Method!
Number cuts repeat: 0
value: 64.292978
Number Constraints Used in Cover:133
GRASP Method!
Number cuts repeat: 0
value: 64.292978
Number Constraints Used in Cover:135
GRASP Method!
Number cuts repeat: 0
value: 64.292978
Number Constraints Used in Cover:138
GRASP Method!
Number cuts repeat: 0
value: 64.292978
Number Constraints Used in Cover:140
GRASP Method!
Number cuts repeat: 0
value: 64.292978
Number Constraints Used in Cover:143
GRASP Method!
Number cuts repeat: 0
value: 64.292978
Number Constraints Used in Cover:145
GRASP Method!
Number cuts repeat: 0
value: 64.292978
Number Constraints Used in Cover:147
GRASP Method!
Number cuts repeat: 0
value: 64.292978
Number Constraints Used in Cover:150
GRASP Method!
Number cuts repeat: 0
value: 64.292978
Number Constraints Used in Cover:151
GRASP Method!
Number cuts repeat: 0
value: 64.292978
Number Constraints Used in Cover:154
GRASP Method!
Number cuts repeat: 0
value: 64.292978
Number Constraints Used in Cover:157
GRASP Method!
Number cuts repeat: 0
value: 64.292978
Number Constraints Used in Cover:161
GRASP Method!
Number cuts repeat: 0
value: 64.292978
Number Constraints Used in Cover:163
GRASP Method!
Number cuts repeat: 0
value: 64.292978
Number Constraints Used in Cover:166
GRASP Method!
Number cuts repeat: 0
value: 64.292978
Number Constraints Used in Cover:169
GRASP Method!
Number cuts repeat: 0
value: 64.292978
Number Constraints Used in Cover:173
GRASP Method!
Number cuts repeat: 0
value: 64.292978
Number Constraints Used in Cover:176
GRASP Method!
Number cuts repeat: 0
value: 64.292978
Number Constraints Used in Cover:179
GRASP Method!
Number cuts repeat: 0
value: 64.292978
Number Constraints Used in Cover:182
GRASP Method!
Number cuts repeat: 0
value: 64.292978
Number Constraints Used in Cover:185
GRASP Method!
Number cuts repeat: 0
value: 64.292978
Number Constraints Used in Cover:187
GRASP Method!
Number cuts repeat: 0
value: 64.292978
Number Constraints Used in Cover:189
GRASP Method!
Number cuts repeat: 0
value: 64.292978
Number Constraints Used in Cover:193
GRASP Method!
Number cuts repeat: 0
value: 64.292978
Number Constraints Used in Cover:196
GRASP Method!
Number cuts repeat: 0
value: 64.292978
Number Constraints Used in Cover:200
GRASP Method!
Number cuts repeat: 0
value: 64.292978
Number Constraints Used in Cover:204
GRASP Method!
Number cuts repeat: 0
value: 64.292978
Number Constraints Used in Cover:207
GRASP Method!
Number cuts repeat: 0
value: 64.292978
Number Constraints Used in Cover:208
GRASP Method!
Number cuts repeat: 0
value: 64.292978
Number Constraints Used in Cover:211
GRASP Method!
Number cuts repeat: 0
value: 64.292978
Number Constraints Used in Cover:215
GRASP Method!
Number cuts repeat: 0
value: 64.292978
Number Constraints Used in Cover:219
GRASP Method!
Number cuts repeat: 0
value: 64.292978
Number Constraints Used in Cover:221
GRASP Method!
Number cuts repeat: 0
value: 64.292978
Number Constraints Used in Cover:225
GRASP Method!
Number cuts repeat: 0
value: 64.292978
Number Constraints Used in Cover:228
GRASP Method!
Number cuts repeat: 0
value: 64.292978
Number Constraints Used in Cover:230
GRASP Method!
Number cuts repeat: 0
value: 64.292978
Number Constraints Used in Cover:233
GRASP Method!
Number cuts repeat: 0
value: 64.292978
Number Constraints Used in Cover:234
GRASP Method!
Number cuts repeat: 0
value: 64.292978
Number Constraints Used in Cover:236
GRASP Method!
Number cuts repeat: 0
value: 64.292978
Number Constraints Used in Cover:239
GRASP Method!
Number cuts repeat: 0
value: 64.292978
Number Constraints Used in Cover:241
GRASP Method!
Number cuts repeat: 0
value: 64.292978
Number Constraints Used in Cover:245
GRASP Method!
Number cuts repeat: 0
value: 64.292978
Number Constraints Used in Cover:248
GRASP Method!
Number cuts repeat: 0
value: 64.292978
Number Constraints Used in Cover:252
GRASP Method!
Number cuts repeat: 0
value: 64.292978
Number Constraints Used in Cover:255
GRASP Method!
Number cuts repeat: 0
value: 64.292978
Number Constraints Used in Cover:258
GRASP Method!
Number cuts repeat: 0
value: 64.292978
Number Constraints Used in Cover:262
GRASP Method!
Number cuts repeat: 0
value: 64.292978
Number Constraints Used in Cover:266
GRASP Method!
Number cuts repeat: 0
value: 64.292978
Number Constraints Used in Cover:267
GRASP Method!
Number cuts repeat: 0
value: 64.292978
Number Constraints Used in Cover:269
GRASP Method!
Number cuts repeat: 0
value: 64.292978
Number Constraints Used in Cover:272
GRASP Method!
Number cuts repeat: 0
value: 64.292978
Number Constraints Used in Cover:274
GRASP Method!
Number cuts repeat: 0
value: 64.292978
Number Constraints Used in Cover:278
GRASP Method!
Number cuts repeat: 0
value: 64.292978
Number Constraints Used in Cover:280
GRASP Method!
Number cuts repeat: 0
value: 64.292978
Number Constraints Used in Cover:284
GRASP Method!
Number cuts repeat: 0
value: 64.292978
Number Constraints Used in Cover:286
GRASP Method!
Number cuts repeat: 0
value: 64.292978
Number Constraints Used in Cover:288
GRASP Method!
Number cuts repeat: 0
value: 64.292978
Number Constraints Used in Cover:291
GRASP Method!
Number cuts repeat: 0
value: 64.292978
Number Constraints Used in Cover:294
GRASP Method!
Number cuts repeat: 0
value: 64.292978
Number Constraints Used in Cover:296
GRASP Method!
Number cuts repeat: 0
value: 64.292978
Number Constraints Used in Cover:299
GRASP Method!
Number cuts repeat: 0
value: 64.292978
Number Constraints Used in Cover:302
GRASP Method!
Number cuts repeat: 0
value: 64.292978
Number Constraints Used in Cover:304
GRASP Method!
Number cuts repeat: 0
value: 64.292978
Number Constraints Used in Cover:307
GRASP Method!
Number cuts repeat: 0
value: 64.292978
Number Constraints Used in Cover:308
GRASP Method!
Number cuts repeat: 0
value: 64.292978
Number Constraints Used in Cover:311
GRASP Method!
Number cuts repeat: 0
value: 64.292978
Number Constraints Used in Cover:314
GRASP Method!
Number cuts repeat: 0
value: 64.292978
Number Constraints Used in Cover:317
GRASP Method!
Number cuts repeat: 0
value: 64.292978
Number Constraints Used in Cover:321
GRASP Method!
Number cuts repeat: 0
value: 64.292978
Number Constraints Used in Cover:325
GRASP Method!
Number cuts repeat: 0
value: 64.292978
Number Constraints Used in Cover:326
GRASP Method!
Number cuts repeat: 0
value: 64.292978
Number Constraints Used in Cover:330
GRASP Method!
Number cuts repeat: 0
value: 63.920306
Number Constraints Used in Cover:334
GRASP Method!
Number cuts repeat: 0
value: 63.920306
Number Constraints Used in Cover:336
GRASP Method!
Number cuts repeat: 0
value: 63.920306
Number Constraints Used in Cover:338
GRASP Method!
Number cuts repeat: 0
value: 63.920306
Number Constraints Used in Cover:340
GRASP Method!
Number cuts repeat: 0
value: 63.920306
Number Constraints Used in Cover:343
GRASP Method!
Number cuts repeat: 0
value: 63.920306
Number Constraints Used in Cover:346
GRASP Method!
Number cuts repeat: 0
value: 63.920306
Number Constraints Used in Cover:349
GRASP Method!
Number cuts repeat: 0
value: 63.920306
Number Constraints Used in Cover:351
GRASP Method!
Number cuts repeat: 0
value: 63.920306
Number Constraints Used in Cover:354
GRASP Method!
Number cuts repeat: 0
value: 63.920306
Number Constraints Used in Cover:356
GRASP Method!
Number cuts repeat: 0
value: 63.920306
Number Constraints Used in Cover:358
GRASP Method!
Number cuts repeat: 0
value: 63.920306
Number Constraints Used in Cover:360
GRASP Method!
Number cuts repeat: 0
value: 63.920306
Number Constraints Used in Cover:362
GRASP Method!
Number cuts repeat: 0
value: 63.920306
Number Constraints Used in Cover:365
GRASP Method!
Number cuts repeat: 0
value: 63.920306
Number Constraints Used in Cover:368
GRASP Method!
Number cuts repeat: 0
value: 63.920306
Number Constraints Used in Cover:371
GRASP Method!
Number cuts repeat: 0
value: 63.920306
Number Constraints Used in Cover:374
GRASP Method!
Number cuts repeat: 0
value: 63.920306
Number Constraints Used in Cover:377
GRASP Method!
Number cuts repeat: 0
value: 63.920306
Number Constraints Used in Cover:378
GRASP Method!
Number cuts repeat: 0
value: 63.920306
Number Constraints Used in Cover:381
GRASP Method!
Number cuts repeat: 0
value: 63.920306
Number Constraints Used in Cover:384
GRASP Method!
Number cuts repeat: 0
value: 63.920306
Number Constraints Used in Cover:386
GRASP Method!
Number cuts repeat: 0
value: 63.920306
Number Constraints Used in Cover:389
GRASP Method!
Number cuts repeat: 0
value: 63.920306
Number Constraints Used in Cover:391
GRASP Method!
Number cuts repeat: 0
value: 63.920306
Number Constraints Used in Cover:392
GRASP Method!
Number cuts repeat: 0
value: 63.920306
Number Constraints Used in Cover:394
GRASP Method!
Number cuts repeat: 0
value: 63.920306
Number Constraints Used in Cover:397
GRASP Method!
Number cuts repeat: 0
value: 63.920306
Number Constraints Used in Cover:400
GRASP Method!
Number cuts repeat: 0
value: 63.920306
Number Constraints Used in Cover:402
GRASP Method!
Number cuts repeat: 0
value: 63.920306
Number Constraints Used in Cover:404
GRASP Method!
Number cuts repeat: 0
value: 63.920306
Number Constraints Used in Cover:406
GRASP Method!
Number cuts repeat: 0
value: 63.920306
Number Constraints Used in Cover:408
GRASP Method!
Number cuts repeat: 0
value: 63.920306
Number Constraints Used in Cover:410
GRASP Method!
Number cuts repeat: 0
value: 63.920306
Number Constraints Used in Cover:412
GRASP Method!
Number cuts repeat: 0
value: 63.920306
Number Constraints Used in Cover:414
GRASP Method!
Number cuts repeat: 0
value: 63.920306
Number Constraints Used in Cover:416
GRASP Method!
Number cuts repeat: 0
value: 63.920306
Number Constraints Used in Cover:418
GRASP Method!
Number cuts repeat: 0
value: 63.920306
Number Constraints Used in Cover:419
GRASP Method!
Number cuts repeat: 0
value: 63.920306
Number Constraints Used in Cover:421
GRASP Method!
Number cuts repeat: 0
value: 63.920306
Number Constraints Used in Cover:423
GRASP Method!
Number cuts repeat: 0
value: 63.920306
Number Constraints Used in Cover:425
GRASP Method!
Number cuts repeat: 0
value: 63.920306
Number Constraints Used in Cover:428
GRASP Method!
Number cuts repeat: 0
value: 63.920306
Number Constraints Used in Cover:431
GRASP Method!
Number cuts repeat: 0
value: 63.920306
Number Constraints Used in Cover:432
GRASP Method!
Number cuts repeat: 0
value: 63.920306
Number Constraints Used in Cover:434
GRASP Method!
Number cuts repeat: 0
value: 63.920306
Number Constraints Used in Cover:437
GRASP Method!
Number cuts repeat: 0
value: 63.920306
Number Constraints Used in Cover:440
GRASP Method!
Number cuts repeat: 0
value: 63.920306
Number Constraints Used in Cover:442
GRASP Method!
Number cuts repeat: 0
value: 63.920306
Number Constraints Used in Cover:445
GRASP Method!
Number cuts repeat: 0
value: 63.920306
Number Constraints Used in Cover:448
GRASP Method!
Number cuts repeat: 0
value: 63.920306
Number Constraints Used in Cover:450
GRASP Method!
Number cuts repeat: 0
value: 63.920306
Number Constraints Used in Cover:453
GRASP Method!
Number cuts repeat: 0
value: 63.920306
Number Constraints Used in Cover:456
GRASP Method!
Number cuts repeat: 0
value: 63.920306
Number Constraints Used in Cover:459
GRASP Method!
Number cuts repeat: 0
value: 63.920306
Number Constraints Used in Cover:462
GRASP Method!
Number cuts repeat: 0
value: 63.920306
Number Constraints Used in Cover:465
GRASP Method!
Number cuts repeat: 0
value: 63.920306
Number Constraints Used in Cover:467
GRASP Method!
Number cuts repeat: 0
value: 63.920306
Number Constraints Used in Cover:470
GRASP Method!
Number cuts repeat: 0
value: 63.920306
Number Constraints Used in Cover:471
GRASP Method!
Number cuts repeat: 0
value: 63.920306
Number Constraints Used in Cover:473
GRASP Method!
Number cuts repeat: 0
value: 63.920306
Number Constraints Used in Cover:475
GRASP Method!
Number cuts repeat: 0
value: 63.920306
Number Constraints Used in Cover:477
GRASP Method!
Number cuts repeat: 0
value: 63.920306
Number Constraints Used in Cover:479
GRASP Method!
Number cuts repeat: 0
value: 63.920306
Number Constraints Used in Cover:481
GRASP Method!
Number cuts repeat: 0
value: 63.920306
Number Constraints Used in Cover:483
GRASP Method!
Number cuts repeat: 0
value: 63.920306
Number Constraints Used in Cover:485
GRASP Method!
Number cuts repeat: 0
value: 63.920306
Number Constraints Used in Cover:487
GRASP Method!
Number cuts repeat: 0
value: 63.920306
Number Constraints Used in Cover:489
GRASP Method!
Number cuts repeat: 0
value: 63.920306
Number Constraints Used in Cover:491
GRASP Method!
Number cuts repeat: 0
value: 63.920306
Number Constraints Used in Cover:492
GRASP Method!
Number cuts repeat: 0
value: 63.920306
Number Constraints Used in Cover:495
GRASP Method!
Number cuts repeat: 0
value: 63.920306
Number Constraints Used in Cover:496
GRASP Method!
Number cuts repeat: 0
value: 63.920306
Number Constraints Used in Cover:499
GRASP Method!
Number cuts repeat: 0
value: 63.920306
Number Constraints Used in Cover:501
GRASP Method!
Number cuts repeat: 0
value: 63.920306
Number Constraints Used in Cover:504
GRASP Method!
Number cuts repeat: 0
value: 63.920306
Number Constraints Used in Cover:507
GRASP Method!
Number cuts repeat: 0
value: 63.920306
Number Constraints Used in Cover:508
GRASP Method!
Number cuts repeat: 0
value: 63.920306
Number Constraints Used in Cover:508
GRASP Method!
Number cuts repeat: 0
value: 63.920306
Number Constraints Used in Cover:510
GRASP Method!
Number cuts repeat: 0
value: 63.920306
Number Constraints Used in Cover:513
GRASP Method!
Number cuts repeat: 0
value: 63.920306
Number Constraints Used in Cover:515
GRASP Method!
Number cuts repeat: 0
value: 63.920306
Number Constraints Used in Cover:517
GRASP Method!
Number cuts repeat: 0
value: 63.920306
Number Constraints Used in Cover:517
GRASP Method!
Number cuts repeat: 0
value: 63.920306
Number Constraints Used in Cover:518
GRASP Method!
Number cuts repeat: 0
value: 63.920306
Number Constraints Used in Cover:520
GRASP Method!
Number cuts repeat: 0
value: 63.920306
Number Constraints Used in Cover:522
GRASP Method!
Number cuts repeat: 0
value: 63.920306
Number Constraints Used in Cover:524
GRASP Method!
Number cuts repeat: 0
value: 63.920306
Number Constraints Used in Cover:526
GRASP Method!
Number cuts repeat: 0
value: 63.920306
Number Constraints Used in Cover:527
GRASP Method!
Number cuts repeat: 0
value: 63.920306
Number Constraints Used in Cover:528
GRASP Method!
Number cuts repeat: 0
value: 63.920306
Number Constraints Used in Cover:530
GRASP Method!
Number cuts repeat: 0
value: 63.920306
Number Constraints Used in Cover:531
GRASP Method!
Number cuts repeat: 0
value: 63.920306
Number Constraints Used in Cover:532
GRASP Method!
Number cuts repeat: 0
value: 63.920306
Number Constraints Used in Cover:534
GRASP Method!
Number cuts repeat: 0
value: 63.920306
Number Constraints Used in Cover:537
GRASP Method!
Number cuts repeat: 0
value: 63.920306
Number Constraints Used in Cover:540
GRASP Method!
Number cuts repeat: 0
value: 63.920306
Number Constraints Used in Cover:541
GRASP Method!
Number cuts repeat: 0
value: 63.920306
Number Constraints Used in Cover:544
GRASP Method!
Number cuts repeat: 0
value: 63.920306
Number Constraints Used in Cover:547
GRASP Method!
Number cuts repeat: 0
value: 63.920306
Number Constraints Used in Cover:549
GRASP Method!
Number cuts repeat: 0
value: 63.920306
Number Constraints Used in Cover:550
GRASP Method!
Number cuts repeat: 0
value: 63.920306
Number Constraints Used in Cover:552
GRASP Method!
Number cuts repeat: 0
value: 63.920306
Number Constraints Used in Cover:554
GRASP Method!
Number cuts repeat: 0
value: 63.920306
Number Cuts Final: 551
